p cnf 386 460
-16 -7 -15 21 22 0
-16 -7 -15 21 -22 0
-16 -7 -15 -21 23 0
-16 -7 -15 -21 -23 0
11 -16 -20 24 25 0
11 -16 -20 24 -25 0
11 -16 -20 -24 26 0
11 -16 -20 -24 -26 0
5 6 8 27 28 0
5 6 8 27 -28 0
5 6 8 -27 29 0
5 6 8 -27 -29 0
-10 4 -5 30 31 0
-10 4 -5 30 -31 0
-10 4 -5 -30 32 0
-10 4 -5 -30 -32 0
-5 -10 9 33 34 0
-5 -10 9 33 -34 0
-5 -10 9 -33 35 0
-5 -10 9 -33 -35 0
-14 -19 15 36 37 0
-14 -19 15 36 -37 0
-14 -19 15 -36 38 0
-14 -19 15 -36 -38 0
2 -7 6 39 40 0
2 -7 6 39 -40 0
2 -7 6 -39 41 0
2 -7 6 -39 -41 0
1 18 -8 42 43 0
1 18 -8 42 -43 0
1 18 -8 -42 44 0
1 18 -8 -42 -44 0
18 13 16 45 46 0
18 13 16 45 -46 0
18 13 16 -45 47 0
18 13 16 -45 -47 0
1 11 10 48 49 0
1 11 10 48 -49 0
1 11 10 -48 50 0
1 11 10 -48 -50 0
10 -2 -20 51 52 0
10 -2 -20 51 -52 0
10 -2 -20 -51 53 0
10 -2 -20 -51 -53 0
-14 -15 -3 54 55 0
-14 -15 -3 54 -55 0
-14 -15 -3 -54 56 0
-14 -15 -3 -54 -56 0
2 17 -14 57 58 0
2 17 -14 57 -58 0
2 17 -14 -57 59 0
2 17 -14 -57 -59 0
-2 3 -9 60 61 0
-2 3 -9 60 -61 0
-2 3 -9 -60 62 0
-2 3 -9 -60 -62 0
18 -6 -5 63 64 0
18 -6 -5 63 -64 0
18 -6 -5 -63 65 0
18 -6 -5 -63 -65 0
10 4 15 66 67 0
10 4 15 66 -67 0
10 4 15 -66 68 0
10 4 15 -66 -68 0
5 2 -3 69 70 0
5 2 -3 69 -70 0
5 2 -3 -69 71 0
5 2 -3 -69 -71 0
-4 -3 17 72 73 0
-4 -3 17 72 -73 0
-4 -3 17 -72 74 0
-4 -3 17 -72 -74 0
13 4 -1 75 76 0
13 4 -1 75 -76 0
13 4 -1 -75 77 0
13 4 -1 -75 -77 0
-8 14 -20 78 79 0
-8 14 -20 78 -79 0
-8 14 -20 -78 80 0
-8 14 -20 -78 -80 0
-4 -11 -7 81 82 0
-4 -11 -7 81 -82 0
-4 -11 -7 -81 83 0
-4 -11 -7 -81 -83 0
17 1 -18 84 85 0
17 1 -18 84 -85 0
17 1 -18 -84 86 0
17 1 -18 -84 -86 0
8 -4 -13 87 88 0
8 -4 -13 87 -88 0
8 -4 -13 -87 89 0
8 -4 -13 -87 -89 0
-17 -7 18 90 91 0
-17 -7 18 90 -91 0
-17 -7 18 -90 92 0
-17 -7 18 -90 -92 0
-12 -4 19 93 94 0
-12 -4 19 93 -94 0
-12 -4 19 -93 95 0
-12 -4 19 -93 -95 0
3 -2 -16 96 97 0
3 -2 -16 96 -97 0
3 -2 -16 -96 98 0
3 -2 -16 -96 -98 0
4 -11 -15 99 100 0
4 -11 -15 99 -100 0
4 -11 -15 -99 101 0
4 -11 -15 -99 -101 0
17 2 -19 102 103 0
17 2 -19 102 -103 0
17 2 -19 -102 104 0
17 2 -19 -102 -104 0
4 -2 -1 105 106 0
4 -2 -1 105 -106 0
4 -2 -1 -105 107 0
4 -2 -1 -105 -107 0
7 10 -20 108 109 0
7 10 -20 108 -109 0
7 10 -20 -108 110 0
7 10 -20 -108 -110 0
11 -3 -20 111 112 0
11 -3 -20 111 -112 0
11 -3 -20 -111 113 0
11 -3 -20 -111 -113 0
-20 -15 -5 114 115 0
-20 -15 -5 114 -115 0
-20 -15 -5 -114 116 0
-20 -15 -5 -114 -116 0
10 12 2 117 118 0
10 12 2 117 -118 0
10 12 2 -117 119 0
10 12 2 -117 -119 0
3 5 9 120 121 0
3 5 9 120 -121 0
3 5 9 -120 122 0
3 5 9 -120 -122 0
-20 -11 -17 123 124 0
-20 -11 -17 123 -124 0
-20 -11 -17 -123 125 0
-20 -11 -17 -123 -125 0
-17 -6 -20 126 127 0
-17 -6 -20 126 -127 0
-17 -6 -20 -126 128 0
-17 -6 -20 -126 -128 0
-11 12 -5 129 130 0
-11 12 -5 129 -130 0
-11 12 -5 -129 131 0
-11 12 -5 -129 -131 0
-15 16 -10 132 133 0
-15 16 -10 132 -133 0
-15 16 -10 -132 134 0
-15 16 -10 -132 -134 0
-3 6 -15 135 136 0
-3 6 -15 135 -136 0
-3 6 -15 -135 137 0
-3 6 -15 -135 -137 0
-18 8 11 138 139 0
-18 8 11 138 -139 0
-18 8 11 -138 140 0
-18 8 11 -138 -140 0
-12 3 11 141 142 0
-12 3 11 141 -142 0
-12 3 11 -141 143 0
-12 3 11 -141 -143 0
10 -15 5 144 145 0
10 -15 5 144 -145 0
10 -15 5 -144 146 0
10 -15 5 -144 -146 0
-19 -15 14 147 148 0
-19 -15 14 147 -148 0
-19 -15 14 -147 149 0
-19 -15 14 -147 -149 0
17 -5 -19 150 151 0
17 -5 -19 150 -151 0
17 -5 -19 -150 152 0
17 -5 -19 -150 -152 0
-5 20 -9 153 154 0
-5 20 -9 153 -154 0
-5 20 -9 -153 155 0
-5 20 -9 -153 -155 0
11 8 6 156 157 0
11 8 6 156 -157 0
11 8 6 -156 158 0
11 8 6 -156 -158 0
1 17 3 159 160 0
1 17 3 159 -160 0
1 17 3 -159 161 0
1 17 3 -159 -161 0
10 -20 -18 162 163 0
10 -20 -18 162 -163 0
10 -20 -18 -162 164 0
10 -20 -18 -162 -164 0
7 -10 -20 165 166 0
7 -10 -20 165 -166 0
7 -10 -20 -165 167 0
7 -10 -20 -165 -167 0
-4 2 -12 168 169 0
-4 2 -12 168 -169 0
-4 2 -12 -168 170 0
-4 2 -12 -168 -170 0
-7 -11 -6 171 172 0
-7 -11 -6 171 -172 0
-7 -11 -6 -171 173 0
-7 -11 -6 -171 -173 0
1 -13 9 174 175 0
1 -13 9 174 -175 0
1 -13 9 -174 176 0
1 -13 9 -174 -176 0
6 -8 9 177 178 0
6 -8 9 177 -178 0
6 -8 9 -177 179 0
6 -8 9 -177 -179 0
-19 17 13 180 181 0
-19 17 13 180 -181 0
-19 17 13 -180 182 0
-19 17 13 -180 -182 0
12 -7 -11 183 184 0
12 -7 -11 183 -184 0
12 -7 -11 -183 185 0
12 -7 -11 -183 -185 0
1 -6 -2 186 187 0
1 -6 -2 186 -187 0
1 -6 -2 -186 188 0
1 -6 -2 -186 -188 0
18 19 6 189 190 0
18 19 6 189 -190 0
18 19 6 -189 191 0
18 19 6 -189 -191 0
16 -9 11 192 193 0
16 -9 11 192 -193 0
16 -9 11 -192 194 0
16 -9 11 -192 -194 0
-7 11 18 195 196 0
-7 11 18 195 -196 0
-7 11 18 -195 197 0
-7 11 18 -195 -197 0
7 1 18 198 199 0
7 1 18 198 -199 0
7 1 18 -198 200 0
7 1 18 -198 -200 0
4 11 10 201 202 0
4 11 10 201 -202 0
4 11 10 -201 203 0
4 11 10 -201 -203 0
-7 -8 13 204 205 0
-7 -8 13 204 -205 0
-7 -8 13 -204 206 0
-7 -8 13 -204 -206 0
-19 1 -12 207 208 0
-19 1 -12 207 -208 0
-19 1 -12 -207 209 0
-19 1 -12 -207 -209 0
1 -19 17 210 211 0
1 -19 17 210 -211 0
1 -19 17 -210 212 0
1 -19 17 -210 -212 0
-11 -6 1 213 214 0
-11 -6 1 213 -214 0
-11 -6 1 -213 215 0
-11 -6 1 -213 -215 0
19 -2 18 216 217 0
19 -2 18 216 -217 0
19 -2 18 -216 218 0
19 -2 18 -216 -218 0
15 19 -8 219 220 0
15 19 -8 219 -220 0
15 19 -8 -219 221 0
15 19 -8 -219 -221 0
15 -7 -19 222 223 0
15 -7 -19 222 -223 0
15 -7 -19 -222 224 0
15 -7 -19 -222 -224 0
5 18 -19 225 226 0
5 18 -19 225 -226 0
5 18 -19 -225 227 0
5 18 -19 -225 -227 0
4 -18 -3 228 229 0
4 -18 -3 228 -229 0
4 -18 -3 -228 230 0
4 -18 -3 -228 -230 0
13 -11 16 231 232 0
13 -11 16 231 -232 0
13 -11 16 -231 233 0
13 -11 16 -231 -233 0
-10 -12 -4 234 235 0
-10 -12 -4 234 -235 0
-10 -12 -4 -234 236 0
-10 -12 -4 -234 -236 0
-16 -13 -19 237 238 0
-16 -13 -19 237 -238 0
-16 -13 -19 -237 239 0
-16 -13 -19 -237 -239 0
-14 5 -13 240 241 0
-14 5 -13 240 -241 0
-14 5 -13 -240 242 0
-14 5 -13 -240 -242 0
-10 -9 18 243 244 0
-10 -9 18 243 -244 0
-10 -9 18 -243 245 0
-10 -9 18 -243 -245 0
6 -5 -20 246 247 0
6 -5 -20 246 -247 0
6 -5 -20 -246 248 0
6 -5 -20 -246 -248 0
7 5 9 249 250 0
7 5 9 249 -250 0
7 5 9 -249 251 0
7 5 9 -249 -251 0
-2 -17 -1 252 253 0
-2 -17 -1 252 -253 0
-2 -17 -1 -252 254 0
-2 -17 -1 -252 -254 0
15 -5 4 255 256 0
15 -5 4 255 -256 0
15 -5 4 -255 257 0
15 -5 4 -255 -257 0
8 -6 17 258 259 0
8 -6 17 258 -259 0
8 -6 17 -258 260 0
8 -6 17 -258 -260 0
-15 4 14 261 262 0
-15 4 14 261 -262 0
-15 4 14 -261 263 0
-15 4 14 -261 -263 0
12 11 -13 264 265 0
12 11 -13 264 -265 0
12 11 -13 -264 266 0
12 11 -13 -264 -266 0
8 2 12 267 268 0
8 2 12 267 -268 0
8 2 12 -267 269 0
8 2 12 -267 -269 0
-8 17 6 270 271 0
-8 17 6 270 -271 0
-8 17 6 -270 272 0
-8 17 6 -270 -272 0
-20 -12 8 273 274 0
-20 -12 8 273 -274 0
-20 -12 8 -273 275 0
-20 -12 8 -273 -275 0
-6 11 -9 276 277 0
-6 11 -9 276 -277 0
-6 11 -9 -276 278 0
-6 11 -9 -276 -278 0
-8 -17 4 279 280 0
-8 -17 4 279 -280 0
-8 -17 4 -279 281 0
-8 -17 4 -279 -281 0
15 -5 6 282 283 0
15 -5 6 282 -283 0
15 -5 6 -282 284 0
15 -5 6 -282 -284 0
-8 -1 4 285 286 0
-8 -1 4 285 -286 0
-8 -1 4 -285 287 0
-8 -1 4 -285 -287 0
15 12 -20 288 289 0
15 12 -20 288 -289 0
15 12 -20 -288 290 0
15 12 -20 -288 -290 0
-8 -14 -6 291 292 0
-8 -14 -6 291 -292 0
-8 -14 -6 -291 293 0
-8 -14 -6 -291 -293 0
294 295 297 301 309 0
294 295 297 301 -309 0
294 295 297 -301 310 0
294 295 297 -301 -310 0
294 295 -297 302 311 0
294 295 -297 302 -311 0
294 295 -297 -302 312 0
294 295 -297 -302 -312 0
294 -295 298 303 313 0
294 -295 298 303 -313 0
294 -295 298 -303 314 0
294 -295 298 -303 -314 0
294 -295 -298 304 315 0
294 -295 -298 304 -315 0
294 -295 -298 -304 316 0
294 -295 -298 -304 -316 0
-294 296 299 305 317 0
-294 296 299 305 -317 0
-294 296 299 -305 318 0
-294 296 299 -305 -318 0
-294 296 -299 306 319 0
-294 296 -299 306 -319 0
-294 296 -299 -306 320 0
-294 296 -299 -306 -320 0
-294 -296 300 307 321 0
-294 -296 300 307 -321 0
-294 -296 300 -307 322 0
-294 -296 300 -307 -322 0
-294 -296 -300 308 323 0
-294 -296 -300 308 -323 0
-294 -296 -300 -308 324 0
-294 -296 -300 -308 -324 0
325 326 328 332 340 0
325 326 328 332 -340 0
325 326 328 -332 341 0
325 326 328 -332 -341 0
325 326 -328 333 342 0
325 326 -328 333 -342 0
325 326 -328 -333 343 0
325 326 -328 -333 -343 0
325 -326 329 334 344 0
325 -326 329 334 -344 0
325 -326 329 -334 345 0
325 -326 329 -334 -345 0
325 -326 -329 335 346 0
325 -326 -329 335 -346 0
325 -326 -329 -335 347 0
325 -326 -329 -335 -347 0
-325 327 330 336 348 0
-325 327 330 336 -348 0
-325 327 330 -336 349 0
-325 327 330 -336 -349 0
-325 327 -330 337 350 0
-325 327 -330 337 -350 0
-325 327 -330 -337 351 0
-325 327 -330 -337 -351 0
-325 -327 331 338 352 0
-325 -327 331 338 -352 0
-325 -327 331 -338 353 0
-325 -327 331 -338 -353 0
-325 -327 -331 339 354 0
-325 -327 -331 339 -354 0
-325 -327 -331 -339 355 0
-325 -327 -331 -339 -355 0
356 357 359 363 371 0
356 357 359 363 -371 0
356 357 359 -363 372 0
356 357 359 -363 -372 0
356 357 -359 364 373 0
356 357 -359 364 -373 0
356 357 -359 -364 374 0
356 357 -359 -364 -374 0
356 -357 360 365 375 0
356 -357 360 365 -375 0
356 -357 360 -365 376 0
356 -357 360 -365 -376 0
356 -357 -360 366 377 0
356 -357 -360 366 -377 0
356 -357 -360 -366 378 0
356 -357 -360 -366 -378 0
-356 358 361 367 379 0
-356 358 361 367 -379 0
-356 358 361 -367 380 0
-356 358 361 -367 -380 0
-356 358 -361 368 381 0
-356 358 -361 368 -381 0
-356 358 -361 -368 382 0
-356 358 -361 -368 -382 0
-356 -358 362 369 383 0
-356 -358 362 369 -383 0
-356 -358 362 -369 384 0
-356 -358 362 -369 -384 0
-356 -358 -362 370 385 0
-356 -358 -362 370 -385 0
-356 -358 -362 -370 386 0
-356 -358 -362 -370 -386 0

